c tw = 6
p tw 30 45
1 2
1 15
1 16
2 12
2 3
11 12
12 13
13 14
13 28
14 15
16 17
16 30
17 21
17 24
18 19
18 26
18 29
19 20
20 24
20 27
3 4
3 8
21 22
21 29
22 23
23 27
23 30
24 25
25 26
26 30
27 28
28 29
4 19
4 5
5 15
5 6
6 11
6 7
7 22
7 8
8 9
9 14
9 10
10 11
10 25
